NAME 
ROWS
 N  OBJ
 L  R0      
 L  R1      
 L  R2      
 E  R3      
 E  R4      
 E  R5      
 E  R6      
 E  R7      
COLUMNS
    MARKER    'MARKER'                 'INTORG'
    I0(4)     OBJ       135
    I0(4)     R0        -38
    I0(4)     R1        -107
    I0(4)     R2        83
    I0(4)     R7        1
    I1(6)     OBJ       11
    I1(6)     R0        -71
    I1(6)     R1        142
    I1(6)     R2        -39
    I1(6)     R3        19
    I1(6)     R4        19
    I1(6)     R7        1
    MARKER    'MARKER'                 'INTEND'
    C2(5)     OBJ       5
    C2(5)     R0        6
    C2(5)     R1        6
    C2(5)     R2        -2
    C2(5)     R3        12
    C2(5)     R5        10
    C3(7)     OBJ       2
    C3(7)     R0        7
    C3(7)     R1        3
    C3(7)     R2        9
    C3(7)     R3        3
    C3(7)     R4        2
    C3(7)     R5        9
    C3(7)     R6        8
    C4(5)     OBJ       8
    C4(5)     R0        1
    C4(5)     R1        2
    C4(5)     R2        -8
    C4(5)     R5        -1
    C4(5)     R6        19
    C5(1)     R3        1
    C6(1)     R4        1
    C7(1)     R5        1
    C8(1)     R6        1
    C9(1)     R7        1
RHS
    RHS1      R3        69
    RHS1      R4        51
    RHS1      R5        83
    RHS1      R6        75
BOUNDS
 UP BND1      I0(4)     2
 UP BND1      I1(6)     2
ENDATA
